33

C        -2.2019840556    0.6888788872    0.6235754717
C         0.4732412230    1.3667413489    0.4586035901
C        -1.8258155087    2.0212194375    0.6563178330
H         1.5196182890    1.6375011167    0.3991711863
H        -2.5764968743    2.7958650998    0.7475428032
C         0.1198726990    0.0148129303    0.4159397084
H        -0.1844769342    3.4000443284    0.5975312662
H        -3.2479025325    0.4187829383    0.6930238818
C        -0.4830002323    2.3597344623    0.5722731304
C        -1.2376094407   -0.2989033749    0.5011953058
H        -1.5483406411   -1.3356514284    0.4773170327
C         0.2262617920   -5.2462225693   -0.6732800741
B         1.2227203356   -1.0946693346    0.2977249392
H        -0.8010150016   -4.4306193432   -2.3681620039
H        -0.2630836466   -2.1062298978   -1.8076236096
C         0.8748004493   -2.5885197936   -0.0499081533
H         1.3224618219   -5.7608302090    1.0955097390
C         0.1006228502   -2.9018448183   -1.1685437513
C         0.9826732148   -4.9595564027    0.4519980738
C         1.3106448071   -3.6473142113    0.7498242786
C        -0.2102723447   -4.2139306444   -1.4873549734
H        -0.0238077298   -6.2714941586   -0.9137006640
H         1.9113911236   -3.4463997249    1.6290567748
O         2.4915502784   -0.6755819689    0.5176998685
C         3.6781111578   -1.4403111984    0.3656805315
C         4.7588187684   -0.5633406665   -0.2303181636
N         5.9820494385   -1.3398178022   -0.3874578523
H         5.8965498199   -1.9902983569   -1.1588710970
H         6.7636309617   -0.7348933095   -0.6009111098
H         3.9971145441   -1.8023574115    1.3443889129
H         3.4967981383   -2.3058685870   -0.2747600787
H         4.3853519246   -0.1310657100   -1.1665928321
H         4.9576213047    0.2653403726    0.4507100349
