34

C        -2.1965891608    0.6348626316    0.8658693737
C         0.3575416529    1.4511426994    0.1819508209
C        -1.9004335853    1.9855783800    0.7866832336
H         1.3555044400    1.7752290447   -0.0834821635
H        -2.6666340531    2.7218087187    0.9932980190
C         0.0831385991    0.0816442498    0.2514058328
H        -0.3870983703    3.4491190597    0.3800319040
H        -3.1940786876    0.3134998983    1.1362867988
C        -0.6197109478    2.3939165344    0.4430347570
C        -1.2133375724   -0.3035079202    0.5981654829
H        -1.4563660102   -1.3562615824    0.6636436114
C         0.3278245281   -5.2456895326   -0.3935357669
B         1.1970682130   -0.9736126704   -0.0381449683
H        -0.8825892282   -4.6885917521   -2.0720537806
H        -0.4100528540   -2.2945040245   -1.8548793855
C         0.8997173967   -2.5101374520   -0.1643840764
H         1.5944707628   -5.4906254915    1.3183445477
C         0.0478282124   -2.9890041236   -1.1606236975
C         1.1633764253   -4.7911169239    0.6138712288
C         1.4507355792   -3.4401264638    0.7192560388
C        -0.2268343823   -4.3413196771   -1.2840955457
H         0.1067553692   -6.3014019187   -0.4815501627
H         2.1067053360   -3.1075671686    1.5158973479
O         2.4559203114   -0.4654077023   -0.1743318256
C         3.6013500114   -1.1728693739   -0.5827960655
C         4.7569159232   -0.6350232962    0.2373392011
N         6.0429048783   -1.2729821414   -0.1807294578
H         4.8661571009    0.4367693730    0.0955694301
H         4.6212299725   -0.8435761962    1.2952170782
H         3.4872182405   -2.2480186137   -0.4392194130
H         3.7709392427   -0.9852093203   -1.6461454649
H         6.2511316988   -1.0989158371   -1.1661556139
H         6.0288428010   -2.2855486379   -0.0419106197
H         6.8257981567   -0.9045327691    0.3621933009
