40

C        -6.3076650862    1.8068031995   -0.5714957047
C        -6.0608958735    0.4718713550   -0.8493197105
C        -2.7661067421    3.1695702378   -0.1168967453
C        -5.5725711841    4.1066066847   -0.0186115983
C        -5.2526941897    2.6714760709   -0.3315473525
C        -4.7560702040    0.0129102912   -0.8821180402
C        -3.7131968580    0.8862647826   -0.6409950100
H        -4.5664838705   -1.0295306101   -1.0985294988
C        -3.9297037284    2.2275028302   -0.3620256554
O        -7.0540490729   -0.4179172541   -1.0930311283
H        -7.3244917396    2.1731228097   -0.5414823320
H        -2.7011548825    0.5096369864   -0.6749198159
H        -7.9158066125    0.0107765821   -1.0463164685
F        -6.8761345445    4.3839705755   -0.1314588446
F        -4.9252578882    4.9618591200   -0.8327533684
F        -5.2171702222    4.4414363221    1.2383491689
H        -2.6583188533    3.8633711540   -0.9483420108
H        -2.9366527016    3.7630175129    0.7792627394
N        -0.7418846772    2.2297009601   -1.0384689075
N        -1.4957056125    2.5027702679    0.0385860505
C        -0.9451027952    2.0277398936    1.1681608047
N         1.2791384524    1.1698927682   -1.4722119819
C         0.3041411459    1.5773784760   -0.5640420883
C         0.2355975763    1.4139867048    0.8296519706
H         0.9458938194    0.9337584339    1.4733307974
H        -1.4222940599    2.1584509085    2.1248533872
C         2.4153788499    0.4991227585   -1.1733219562
H         1.1043175279    1.4207494650   -2.4328805325
O         2.7162014493    0.1359340905   -0.0544619079
C         3.3049251962    0.2199281062   -2.3507031932
C         3.8524981686    1.2216682741   -3.1354024066
F         3.1644276424   -2.0830884058   -1.9521562336
C         3.6821638125   -1.0763212536   -2.6684309769
C         4.7267686982    0.9776474995   -4.1704276079
H         5.7490303478   -0.5500421239   -5.2577405383
H         5.1266891513    1.8051608862   -4.7380946163
C         5.0674293223   -0.3345959588   -4.4469249126
C         4.5436611178   -1.3756383086   -3.6986713116
F         3.5237872759    2.4954172466   -2.8588359975
H         4.7905718445   -2.4070893393   -3.9040964656
