43

C        -4.6090732351    0.7049927547   -0.0737902324
C        -4.7940225347   -0.6668973012    0.0013334003
C        -2.4163577430   -0.9922937183    0.3639737615
O        -0.9968975586    0.9645522693    0.4132489255
C        -3.3299462507    1.2195040081    0.0779859730
C        -3.7002184323   -1.4967193798    0.2172118563
O        -5.9928118264   -1.2887217284   -0.1346058895
H        -5.4355003964    1.3765918068   -0.2481090897
H        -3.1660021853    2.2879364821    0.0259818234
C        -2.2438064497    0.3960392440    0.2932668097
H        -3.8679932050   -2.5649031763    0.2468235680
C        -1.2858665140   -1.9255466223    0.5834780875
H        -1.2856354622    1.9491032087    2.2189279270
C        -0.6001929201    1.2389650565    1.7495117540
C        -7.1396944296   -0.4920084317   -0.3607408772
H        -7.0549905520    0.0715684922   -1.2925717494
H        -7.9772205978   -1.1799803004   -0.4326271709
H        -7.3116805671    0.2003414417    0.4662848781
H        -0.5663354314    0.3238537587    2.3452551762
H         0.3950808950    1.6745222262    1.7016345774
C        -0.0948002464   -1.8145280934   -0.1247404922
C        -0.3728744572   -3.8730098985    1.6794200014
C        -1.4028598495   -2.9764150932    1.4902564050
C         0.9464510436   -2.7095902070    0.0498471333
H         0.0259703096   -1.0112095587   -0.8368581499
H        -2.3107177746   -3.0895174668    2.0680354166
H         1.8540267342   -2.6054375944   -0.5193021394
C         0.8136539499   -3.7511875574    0.9617837069
N         1.8110871085   -4.7075355326    1.2246350517
C         3.0286911291   -4.8367407938    0.6509120531
C         3.8827235154   -5.9820398828    1.1404342349
H         1.5762152900   -5.3794842673    1.9368722882
C         5.0348593310   -6.2672580315    0.4190124349
O         3.4555132273   -4.1074173489   -0.2240181574
C         4.5410775862   -7.7925617356    2.5912198531
C         3.6643793464   -6.7841649125    2.2458295722
C         5.8666195315   -7.2944651443    0.8158074373
N         5.6298804169   -8.0485495977    1.8854299745
F         2.5857855080   -6.6112818616    3.0362247616
H         5.2626702259   -5.6696572499   -0.4511937044
H         6.7626399634   -7.5204963220    0.2512843480
H         4.3369365596   -8.3964681935    3.4676145039
H        -0.4880330524   -4.6773537472    2.3956199580
