39

C        -5.9318256836    1.1921275103   -0.2644577479
C        -6.0397477775    0.5469081875   -1.5360506327
C        -2.8892545604    3.4954858150   -0.6891519986
C        -4.9623899936    2.7546352527    1.3791169930
C        -4.9521821557    2.1210181010    0.0200067237
C        -5.0584263190    0.9610938118   -2.4850931326
C        -4.0942796461    1.8932273766   -2.1804353560
H        -5.0960283820    0.5212580759   -3.4751620934
C        -3.9907717513    2.4997491773   -0.9288897147
O        -6.9395425825   -0.3072718592   -1.7908591362
H        -6.6645708101    0.9301645646    0.4858887168
H        -3.3745179780    2.1714193451   -2.9420667829
H         5.1966272808   -2.5693448023   -2.5530771444
F        -5.9119404441    2.2713812156    2.1919708508
F        -5.1677478744    4.0922854782    1.3246151963
F        -3.7927840197    2.5939460366    2.0404285071
H        -2.7342766069    4.0907138258   -1.5885940946
H        -3.1223130246    4.1865359273    0.1153971760
N        -0.8717375517    2.2903208570   -1.3057813602
N        -1.5883115052    2.9107389044   -0.3591156557
C        -0.9525823881    2.9166388412    0.8216041670
N         1.1799024348    1.2120610978   -1.4598981026
C         0.2330310559    1.8961300121   -0.6967445253
C         0.2463876180    2.2616793147    0.6571280590
H         1.0131243917    2.0783178462    1.3839753146
H        -1.3883348973    3.3767485640    1.6911509455
C         2.4075728689    0.8246192555   -1.0486559602
H         0.9220372713    1.0631544446   -2.4227453697
O         2.8217888604    0.9708587267    0.0845583762
C         3.2525659889    0.1796387356   -2.1099880106
C         3.5005565132    0.7656344492   -3.3421816002
F         3.6788686793   -1.6556529948   -0.7140058064
C         3.8981011305   -1.0271091004   -1.8755363896
C         4.3344510861    0.2166611399   -4.2895747147
H         5.6068900035   -1.4401222765   -4.7342272618
H         4.4907088895    0.7326749724   -5.2256910686
C         4.9505767328   -0.9882754071   -4.0037812847
C         4.7334861105   -1.6231638612   -2.7926188032
F         2.9077290359    1.9401934392   -3.6216372784
